p cnf 7230 17
6067 -7024 0
-4606 -6067 -6981 7023 0
-5128 -6067 -6983 7025 0
6067 -7026 0
-5076 -6977 -7021 0
6983 -7026 0
5076 -7022 0
5128 -7026 0
4606 -7024 0
-7023 7024 0
7021 7022 0
-7025 7026 0
6977 -7022 0
6981 -7024 0
7019 7020 0
5449 -7028 0
6983 -7028 0
